(set-logic ALL)
(set-option :produce-models true)
(declare-sort BoundSet 0)
(declare-sort UnboundSet 0)
(set-option :finite-model-find true)
(declare-fun IsLargeGroup (BoundSet) Bool)
(declare-fun IsWalking (BoundSet) Bool)
(declare-fun IsInBusyCity (BoundSet BoundSet) Bool)
(declare-fun IsAtNight (BoundSet) Bool)
(declare-fun IsInCity (BoundSet BoundSet) Bool)
(assert (not (=> (exists ((b BoundSet)) (exists ((a BoundSet)) (exists ((c BoundSet)) (and (IsLargeGroup a) (and (IsWalking a) (and (IsInBusyCity a b) (IsAtNight c))))))) (exists ((d BoundSet)) (exists ((e BoundSet)) (and (IsWalking d) (IsInCity d e)))))))
(check-sat)
(get-model)